(set-logic QF_LRA)
(declare-fun parameter_make_treatment_pallet@1 () Real)
(declare-fun fluent_robot_at_r0_p0@0 () Bool)
(declare-fun fluent_robot_at_r0_p1@0 () Bool)
(declare-fun fluent_robot_at_r0_p2@0 () Bool)
(declare-fun parameter_make_treatment_r@1 () Real)
(declare-fun fluent_robot_free_r0@0 () Bool)
(declare-fun parameter_make_treatment_pos@1 () Real)
(declare-fun fluent_pallet_at_plt0_p0@0 () Bool)
(declare-fun fluent_pallet_at_plt0_p1@0 () Bool)
(declare-fun fluent_pallet_at_plt0_p2@0 () Bool)
(declare-fun fluent_battery_level_r0@0 () Real)
(declare-fun fluent_position_free_p0@0 () Bool)
(declare-fun fluent_position_free_p1@0 () Bool)
(declare-fun fluent_position_free_p2@0 () Bool)
(declare-fun fluent_robot_has_r0_plt0@0 () Bool)
(declare-fun fluent_ready_plt0_p0_t0@0 () Bool)
(declare-fun fluent_ready_plt0_p1_t0@0 () Bool)
(declare-fun fluent_ready_plt0_p2_t0@0 () Bool)
(declare-fun fluent_ready_plt0_p0_t1@0 () Bool)
(declare-fun fluent_ready_plt0_p1_t1@0 () Bool)
(declare-fun fluent_ready_plt0_p2_t1@0 () Bool)
(declare-fun fluent_treated_plt0_t0@0 () Bool)
(declare-fun fluent_treated_plt0_t1@0 () Bool)
(declare-fun act_move@1 () Bool)
(declare-fun parameter_move_topos@1 () Real)
(declare-fun parameter_move_frompos@1 () Real)
(declare-fun act_make_treatment@1 () Bool)
(declare-fun parameter_move_r@1 () Real)
(declare-fun fluent_robot_at_r0_p0@1 () Bool)
(declare-fun fluent_robot_at_r0_p1@1 () Bool)
(declare-fun fluent_robot_at_r0_p2@1 () Bool)
(declare-fun fluent_battery_level_r0@1 () Real)
(declare-fun act_load@1 () Bool)
(declare-fun parameter_load_t@1 () Real)
(declare-fun parameter_load_pos@1 () Real)
(declare-fun parameter_load_pallet@1 () Real)
(declare-fun parameter_load_r@1 () Real)
(declare-fun fluent_robot_free_r0@1 () Bool)
(declare-fun fluent_ready_plt0_p0_t0@1 () Bool)
(declare-fun fluent_ready_plt0_p1_t0@1 () Bool)
(declare-fun fluent_ready_plt0_p2_t0@1 () Bool)
(declare-fun fluent_ready_plt0_p0_t1@1 () Bool)
(declare-fun fluent_ready_plt0_p1_t1@1 () Bool)
(declare-fun fluent_ready_plt0_p2_t1@1 () Bool)
(declare-fun fluent_pallet_at_plt0_p0@1 () Bool)
(declare-fun fluent_pallet_at_plt0_p1@1 () Bool)
(declare-fun fluent_pallet_at_plt0_p2@1 () Bool)
(declare-fun fluent_robot_has_r0_plt0@1 () Bool)
(declare-fun fluent_treated_plt0_t0@1 () Bool)
(declare-fun fluent_treated_plt0_t1@1 () Bool)
(declare-fun fluent_position_free_p0@1 () Bool)
(declare-fun fluent_position_free_p1@1 () Bool)
(declare-fun fluent_position_free_p2@1 () Bool)
(declare-fun act_load_at_depot@1 () Bool)
(declare-fun parameter_load_at_depot_pos@1 () Real)
(declare-fun parameter_load_at_depot_r@1 () Real)
(declare-fun parameter_load_at_depot_pallet@1 () Real)
(declare-fun act_unload_at_depot@1 () Bool)
(declare-fun parameter_unload_at_depot_pos@1 () Real)
(declare-fun parameter_unload_at_depot_r@1 () Real)
(declare-fun parameter_unload_at_depot_pallet@1 () Real)
(declare-fun dur_make_treatment@1 () Real)
(declare-fun t@1 () Real)
(declare-fun parameter_make_treatment_t@1 () Real)
(assert (let ((.def_0 (= parameter_load_pallet@1 4.0))) (let ((.def_1 (= parameter_load_pos@1 3.0))) (let ((.def_2 (= parameter_load_pos@1 2.0))) (let ((.def_3 (= parameter_load_pos@1 1.0))) (let ((.def_4 (or .def_3 .def_2 .def_1))) (let ((.def_5 (= parameter_load_t@1 6.0))) (let ((.def_6 (= parameter_load_t@1 5.0))) (let ((.def_7 (or .def_6 .def_5))) (let ((.def_8 (<= fluent_battery_level_r0@1 100.0))) (let ((.def_9 (<= 0.0 fluent_battery_level_r0@1))) (let ((.def_10 (= parameter_unload_at_depot_pallet@1 4.0))) (let ((.def_11 (= parameter_unload_at_depot_r@1 0.0))) (let ((.def_12 (= parameter_unload_at_depot_pos@1 3.0))) (let ((.def_13 (= parameter_unload_at_depot_pos@1 2.0))) (let ((.def_14 (= parameter_unload_at_depot_pos@1 1.0))) (let ((.def_15 (or .def_14 .def_13 .def_12))) (let ((.def_16 (= parameter_load_at_depot_pallet@1 4.0))) (let ((.def_17 (= parameter_move_r@1 0.0))) (let ((.def_18 (= parameter_load_at_depot_r@1 0.0))) (let ((.def_19 (= parameter_move_frompos@1 3.0))) (let ((.def_20 (= parameter_move_frompos@1 2.0))) (let ((.def_21 (= parameter_move_frompos@1 1.0))) (let ((.def_22 (or .def_21 .def_20 .def_19))) (let ((.def_23 (= parameter_load_at_depot_pos@1 3.0))) (let ((.def_24 (= parameter_load_at_depot_pos@1 2.0))) (let ((.def_25 (= parameter_load_at_depot_pos@1 1.0))) (let ((.def_26 (or .def_25 .def_24 .def_23))) (let ((.def_27 (= parameter_move_topos@1 3.0))) (let ((.def_28 (= parameter_move_topos@1 2.0))) (let ((.def_29 (= parameter_move_topos@1 1.0))) (let ((.def_30 (or .def_29 .def_28 .def_27))) (let ((.def_31 (= parameter_make_treatment_pos@1 3.0))) (let ((.def_32 (= parameter_make_treatment_pos@1 2.0))) (let ((.def_33 (= parameter_make_treatment_pos@1 1.0))) (let ((.def_34 (or .def_33 .def_32 .def_31))) (let ((.def_35 (= parameter_load_r@1 0.0))) (let ((.def_36 (= parameter_make_treatment_r@1 0.0))) (let ((.def_37 (= parameter_make_treatment_pallet@1 4.0))) (let ((.def_38 (= parameter_make_treatment_t@1 6.0))) (let ((.def_39 (= parameter_make_treatment_t@1 5.0))) (let ((.def_40 (or .def_39 .def_38))) (let ((.def_41 (and act_move@1 true .def_17))) (let ((.def_42 (= fluent_battery_level_r0@0 fluent_battery_level_r0@1))) (let ((.def_43 (not .def_42))) (let ((.def_44 (=> .def_43 .def_41))) (let ((.def_45 (and act_make_treatment@1 true .def_37 .def_31))) (let ((.def_46 (and act_unload_at_depot@1 true .def_10 .def_12))) (let ((.def_47 (and .def_46 .def_45))) (let ((.def_48 (not .def_47))) (let ((.def_49 (and act_load_at_depot@1 true .def_16 .def_23))) (let ((.def_50 (and .def_49 .def_45))) (let ((.def_51 (not .def_50))) (let ((.def_52 (and .def_49 .def_46))) (let ((.def_53 (not .def_52))) (let ((.def_54 (and act_load@1 true .def_0 .def_1))) (let ((.def_55 (and .def_54 .def_45))) (let ((.def_56 (not .def_55))) (let ((.def_57 (and .def_54 .def_46))) (let ((.def_58 (not .def_57))) (let ((.def_59 (and .def_54 .def_49))) (let ((.def_60 (not .def_59))) (let ((.def_61 (or .def_54 .def_49 .def_46 .def_45))) (let ((.def_62 (= fluent_pallet_at_plt0_p2@0 fluent_pallet_at_plt0_p2@1))) (let ((.def_63 (not .def_62))) (let ((.def_64 (=> .def_63 .def_61))) (let ((.def_65 (and act_make_treatment@1 true .def_37 .def_32))) (let ((.def_66 (and act_unload_at_depot@1 true .def_10 .def_13))) (let ((.def_67 (and .def_66 .def_65))) (let ((.def_68 (not .def_67))) (let ((.def_69 (and act_load_at_depot@1 true .def_16 .def_24))) (let ((.def_70 (and .def_69 .def_65))) (let ((.def_71 (not .def_70))) (let ((.def_72 (and .def_69 .def_66))) (let ((.def_73 (not .def_72))) (let ((.def_74 (and act_load@1 true .def_0 .def_2))) (let ((.def_75 (and .def_74 .def_65))) (let ((.def_76 (not .def_75))) (let ((.def_77 (and .def_74 .def_66))) (let ((.def_78 (not .def_77))) (let ((.def_79 (and .def_74 .def_69))) (let ((.def_80 (not .def_79))) (let ((.def_81 (or .def_74 .def_69 .def_66 .def_65))) (let ((.def_82 (= fluent_pallet_at_plt0_p1@0 fluent_pallet_at_plt0_p1@1))) (let ((.def_83 (not .def_82))) (let ((.def_84 (=> .def_83 .def_81))) (let ((.def_85 (and act_make_treatment@1 true .def_37 .def_33))) (let ((.def_86 (and act_unload_at_depot@1 true .def_10 .def_14))) (let ((.def_87 (and .def_86 .def_85))) (let ((.def_88 (not .def_87))) (let ((.def_89 (and act_load_at_depot@1 true .def_16 .def_25))) (let ((.def_90 (and .def_89 .def_85))) (let ((.def_91 (not .def_90))) (let ((.def_92 (and .def_89 .def_86))) (let ((.def_93 (not .def_92))) (let ((.def_94 (and act_load@1 true .def_0 .def_3))) (let ((.def_95 (and .def_94 .def_85))) (let ((.def_96 (not .def_95))) (let ((.def_97 (and .def_94 .def_86))) (let ((.def_98 (not .def_97))) (let ((.def_99 (and .def_94 .def_89))) (let ((.def_100 (not .def_99))) (let ((.def_101 (or .def_94 .def_89 .def_86 .def_85))) (let ((.def_102 (= fluent_pallet_at_plt0_p0@0 fluent_pallet_at_plt0_p0@1))) (let ((.def_103 (not .def_102))) (let ((.def_104 (=> .def_103 .def_101))) (let ((.def_105 (and act_load@1 true .def_0 .def_5))) (let ((.def_106 (= fluent_treated_plt0_t1@0 fluent_treated_plt0_t1@1))) (let ((.def_107 (not .def_106))) (let ((.def_108 (=> .def_107 .def_105))) (let ((.def_109 (and act_load@1 true .def_0 .def_6))) (let ((.def_110 (= fluent_treated_plt0_t0@0 fluent_treated_plt0_t0@1))) (let ((.def_111 (not .def_110))) (let ((.def_112 (=> .def_111 .def_109))) (let ((.def_113 (and act_make_treatment@1 true .def_31))) (let ((.def_114 (and act_load@1 true .def_1))) (let ((.def_115 (and .def_114 .def_113))) (let ((.def_116 (not .def_115))) (let ((.def_117 (or .def_114 .def_113))) (let ((.def_118 (= fluent_position_free_p2@0 fluent_position_free_p2@1))) (let ((.def_119 (not .def_118))) (let ((.def_120 (=> .def_119 .def_117))) (let ((.def_121 (and act_make_treatment@1 true .def_32))) (let ((.def_122 (and act_load@1 true .def_2))) (let ((.def_123 (and .def_122 .def_121))) (let ((.def_124 (not .def_123))) (let ((.def_125 (or .def_122 .def_121))) (let ((.def_126 (= fluent_position_free_p1@0 fluent_position_free_p1@1))) (let ((.def_127 (not .def_126))) (let ((.def_128 (=> .def_127 .def_125))) (let ((.def_129 (and act_make_treatment@1 true .def_33))) (let ((.def_130 (and act_load@1 true .def_3))) (let ((.def_131 (and .def_130 .def_129))) (let ((.def_132 (not .def_131))) (let ((.def_133 (or .def_130 .def_129))) (let ((.def_134 (= fluent_position_free_p0@0 fluent_position_free_p0@1))) (let ((.def_135 (not .def_134))) (let ((.def_136 (=> .def_135 .def_133))) (let ((.def_137 (+ t@1 10.0))) (let ((.def_138 (= t@1 .def_137))) (let ((.def_139 (and act_make_treatment@1 true .def_138 .def_37 .def_31 .def_38))) (let ((.def_140 (and act_load@1 true .def_0 .def_1 .def_5))) (let ((.def_141 (and .def_140 .def_139))) (let ((.def_142 (not .def_141))) (let ((.def_143 (or .def_140 .def_139))) (let ((.def_144 (= fluent_ready_plt0_p2_t1@0 fluent_ready_plt0_p2_t1@1))) (let ((.def_145 (not .def_144))) (let ((.def_146 (=> .def_145 .def_143))) (let ((.def_147 (and act_make_treatment@1 true .def_138 .def_37 .def_32 .def_38))) (let ((.def_148 (and act_load@1 true .def_0 .def_2 .def_5))) (let ((.def_149 (and .def_148 .def_147))) (let ((.def_150 (not .def_149))) (let ((.def_151 (or .def_148 .def_147))) (let ((.def_152 (= fluent_ready_plt0_p1_t1@0 fluent_ready_plt0_p1_t1@1))) (let ((.def_153 (not .def_152))) (let ((.def_154 (=> .def_153 .def_151))) (let ((.def_155 (and act_make_treatment@1 true .def_138 .def_37 .def_33 .def_38))) (let ((.def_156 (and act_load@1 true .def_0 .def_3 .def_5))) (let ((.def_157 (and .def_156 .def_155))) (let ((.def_158 (not .def_157))) (let ((.def_159 (or .def_156 .def_155))) (let ((.def_160 (= fluent_ready_plt0_p0_t1@0 fluent_ready_plt0_p0_t1@1))) (let ((.def_161 (not .def_160))) (let ((.def_162 (=> .def_161 .def_159))) (let ((.def_163 (and act_make_treatment@1 true .def_138 .def_37 .def_31 .def_39))) (let ((.def_164 (and act_load@1 true .def_0 .def_1 .def_6))) (let ((.def_165 (and .def_164 .def_163))) (let ((.def_166 (not .def_165))) (let ((.def_167 (or .def_164 .def_163))) (let ((.def_168 (= fluent_ready_plt0_p2_t0@0 fluent_ready_plt0_p2_t0@1))) (let ((.def_169 (not .def_168))) (let ((.def_170 (=> .def_169 .def_167))) (let ((.def_171 (and act_make_treatment@1 true .def_138 .def_37 .def_32 .def_39))) (let ((.def_172 (and act_load@1 true .def_0 .def_2 .def_6))) (let ((.def_173 (and .def_172 .def_171))) (let ((.def_174 (not .def_173))) (let ((.def_175 (or .def_172 .def_171))) (let ((.def_176 (= fluent_ready_plt0_p1_t0@0 fluent_ready_plt0_p1_t0@1))) (let ((.def_177 (not .def_176))) (let ((.def_178 (=> .def_177 .def_175))) (let ((.def_179 (and act_make_treatment@1 true .def_138 .def_37 .def_33 .def_39))) (let ((.def_180 (and act_load@1 true .def_0 .def_3 .def_6))) (let ((.def_181 (and .def_180 .def_179))) (let ((.def_182 (not .def_181))) (let ((.def_183 (or .def_180 .def_179))) (let ((.def_184 (= fluent_ready_plt0_p0_t0@0 fluent_ready_plt0_p0_t0@1))) (let ((.def_185 (not .def_184))) (let ((.def_186 (=> .def_185 .def_183))) (let ((.def_187 (and act_make_treatment@1 true .def_36 .def_37))) (let ((.def_188 (and act_unload_at_depot@1 true .def_11 .def_10))) (let ((.def_189 (and .def_188 .def_187))) (let ((.def_190 (not .def_189))) (let ((.def_191 (and act_load_at_depot@1 true .def_18 .def_16))) (let ((.def_192 (and .def_191 .def_187))) (let ((.def_193 (not .def_192))) (let ((.def_194 (and .def_191 .def_188))) (let ((.def_195 (not .def_194))) (let ((.def_196 (and act_load@1 true .def_35 .def_0))) (let ((.def_197 (and .def_196 .def_187))) (let ((.def_198 (not .def_197))) (let ((.def_199 (and .def_196 .def_188))) (let ((.def_200 (not .def_199))) (let ((.def_201 (and .def_196 .def_191))) (let ((.def_202 (not .def_201))) (let ((.def_203 (or .def_196 .def_191 .def_188 .def_187))) (let ((.def_204 (= fluent_robot_has_r0_plt0@0 fluent_robot_has_r0_plt0@1))) (let ((.def_205 (not .def_204))) (let ((.def_206 (=> .def_205 .def_203))) (let ((.def_207 (and act_make_treatment@1 true .def_36))) (let ((.def_208 (and act_unload_at_depot@1 true .def_11))) (let ((.def_209 (and .def_208 .def_207))) (let ((.def_210 (not .def_209))) (let ((.def_211 (and act_load_at_depot@1 true .def_18))) (let ((.def_212 (and .def_211 .def_207))) (let ((.def_213 (not .def_212))) (let ((.def_214 (and .def_211 .def_208))) (let ((.def_215 (not .def_214))) (let ((.def_216 (and act_load@1 true .def_35))) (let ((.def_217 (and .def_216 .def_207))) (let ((.def_218 (not .def_217))) (let ((.def_219 (and .def_216 .def_208))) (let ((.def_220 (not .def_219))) (let ((.def_221 (and .def_216 .def_211))) (let ((.def_222 (not .def_221))) (let ((.def_223 (or .def_216 .def_211 .def_208 .def_207))) (let ((.def_224 (= fluent_robot_free_r0@0 fluent_robot_free_r0@1))) (let ((.def_225 (not .def_224))) (let ((.def_226 (=> .def_225 .def_223))) (let ((.def_227 (and act_move@1 true .def_17 .def_19))) (let ((.def_228 (and act_move@1 true .def_17 .def_27))) (let ((.def_229 (and .def_228 .def_227))) (let ((.def_230 (not .def_229))) (let ((.def_231 (or .def_228 .def_227))) (let ((.def_232 (= fluent_robot_at_r0_p2@0 fluent_robot_at_r0_p2@1))) (let ((.def_233 (not .def_232))) (let ((.def_234 (=> .def_233 .def_231))) (let ((.def_235 (and act_move@1 true .def_17 .def_20))) (let ((.def_236 (and act_move@1 true .def_17 .def_28))) (let ((.def_237 (and .def_236 .def_235))) (let ((.def_238 (not .def_237))) (let ((.def_239 (or .def_236 .def_235))) (let ((.def_240 (= fluent_robot_at_r0_p1@0 fluent_robot_at_r0_p1@1))) (let ((.def_241 (not .def_240))) (let ((.def_242 (=> .def_241 .def_239))) (let ((.def_243 (and act_move@1 true .def_17 .def_21))) (let ((.def_244 (and act_move@1 true .def_17 .def_29))) (let ((.def_245 (and .def_244 .def_243))) (let ((.def_246 (not .def_245))) (let ((.def_247 (or .def_244 .def_243))) (let ((.def_248 (= fluent_robot_at_r0_p0@0 fluent_robot_at_r0_p0@1))) (let ((.def_249 (not .def_248))) (let ((.def_250 (=> .def_249 .def_247))) (let ((.def_251 (and .def_250 .def_246 .def_242 .def_238 .def_234 .def_230 .def_226 .def_222 .def_220 .def_218 .def_215 .def_213 .def_210 .def_206 .def_202 .def_200 .def_198 .def_195 .def_193 .def_190 .def_186 .def_182 .def_178 .def_174 .def_170 .def_166 .def_162 .def_158 .def_154 .def_150 .def_146 .def_142 .def_136 .def_132 .def_128 .def_124 .def_120 .def_116 .def_112 .def_108 .def_104 .def_100 .def_98 .def_96 .def_93 .def_91 .def_88 .def_84 .def_80 .def_78 .def_76 .def_73 .def_71 .def_68 .def_64 .def_60 .def_58 .def_56 .def_53 .def_51 .def_48 .def_44))) (let ((.def_252 (= t@1 t@1))) (let ((.def_253 (and act_make_treatment@1 act_load_at_depot@1 .def_252))) (let ((.def_254 (not .def_253))) (let ((.def_255 (and act_unload_at_depot@1 act_move@1 .def_252))) (let ((.def_256 (not .def_255))) (let ((.def_257 (and act_load@1 act_unload_at_depot@1 .def_252))) (let ((.def_258 (not .def_257))) (let ((.def_259 (and act_load@1 act_load_at_depot@1 .def_252))) (let ((.def_260 (not .def_259))) (let ((.def_261 (and act_make_treatment@1 act_unload_at_depot@1 .def_252))) (let ((.def_262 (not .def_261))) (let ((.def_263 (and act_load@1 act_move@1 .def_252))) (let ((.def_264 (not .def_263))) (let ((.def_265 (and act_load_at_depot@1 act_move@1 .def_252))) (let ((.def_266 (not .def_265))) (let ((.def_267 (and act_load_at_depot@1 act_unload_at_depot@1 .def_252))) (let ((.def_268 (not .def_267))) (let ((.def_269 (+ t@1 dur_make_treatment@1))) (let ((.def_270 (= t@1 .def_269))) (let ((.def_271 (and act_load@1 act_make_treatment@1 .def_270))) (let ((.def_272 (not .def_271))) (let ((.def_273 (and act_load@1 act_make_treatment@1 .def_252))) (let ((.def_274 (not .def_273))) (let ((.def_275 (and act_load@1 act_make_treatment@1 .def_138))) (let ((.def_276 (not .def_275))) (let ((.def_277 (and act_make_treatment@1 act_move@1 .def_252))) (let ((.def_278 (not .def_277))) (let ((.def_279 (and .def_278 .def_276 .def_274 .def_272 .def_268 .def_266 .def_264 .def_262 .def_260 .def_258 .def_256 .def_254))) (let ((.def_280 (<= 0.0 t@1))) (let ((.def_281 (and .def_37 .def_32 .def_39))) (let ((.def_282 (ite .def_281 fluent_ready_plt0_p1_t0@1 fluent_ready_plt0_p0_t0@1))) (let ((.def_283 (and .def_37 .def_31 .def_39))) (let ((.def_284 (ite .def_283 fluent_ready_plt0_p2_t0@1 .def_282))) (let ((.def_285 (and .def_37 .def_33 .def_38))) (let ((.def_286 (ite .def_285 fluent_ready_plt0_p0_t1@1 .def_284))) (let ((.def_287 (and .def_37 .def_32 .def_38))) (let ((.def_288 (ite .def_287 fluent_ready_plt0_p1_t1@1 .def_286))) (let ((.def_289 (and .def_37 .def_31 .def_38))) (let ((.def_290 (ite .def_289 fluent_ready_plt0_p2_t1@1 .def_288))) (let ((.def_291 (= .def_290 true))) (let ((.def_292 (=> true .def_291))) (let ((.def_293 (and .def_138 .def_292))) (let ((.def_294 (= fluent_robot_free_r0@1 true))) (let ((.def_295 (=> true .def_294))) (let ((.def_296 (and .def_37 .def_32))) (let ((.def_297 (ite .def_296 fluent_pallet_at_plt0_p1@1 fluent_pallet_at_plt0_p0@1))) (let ((.def_298 (and .def_37 .def_31))) (let ((.def_299 (ite .def_298 fluent_pallet_at_plt0_p2@1 .def_297))) (let ((.def_300 (= .def_299 true))) (let ((.def_301 (=> true .def_300))) (let ((.def_302 (= fluent_robot_has_r0_plt0@1 false))) (let ((.def_303 (=> true .def_302))) (let ((.def_304 (ite .def_32 fluent_position_free_p1@1 fluent_position_free_p0@1))) (let ((.def_305 (ite .def_31 fluent_position_free_p2@1 .def_304))) (let ((.def_306 (= .def_305 false))) (let ((.def_307 (=> true .def_306))) (let ((.def_308 (and .def_252 .def_307 .def_303 .def_301 .def_295))) (let ((.def_309 (ite .def_32 fluent_position_free_p1@0 fluent_position_free_p0@0))) (let ((.def_310 (ite .def_31 fluent_position_free_p2@0 .def_309))) (let ((.def_311 (and .def_37 .def_38))) (let ((.def_312 (ite .def_311 fluent_treated_plt0_t1@0 fluent_treated_plt0_t0@0))) (let ((.def_313 (and .def_312 .def_310))) (let ((.def_314 (<= .def_269 t@1))) (let ((.def_315 (< (- 1.0) .def_269))) (let ((.def_316 (and .def_315 .def_314))) (let ((.def_317 (=> .def_316 .def_313))) (let ((.def_318 (not .def_312))) (let ((.def_319 (and .def_36 .def_32))) (let ((.def_320 (ite .def_319 fluent_robot_at_r0_p1@0 fluent_robot_at_r0_p0@0))) (let ((.def_321 (and .def_36 .def_31))) (let ((.def_322 (ite .def_321 fluent_robot_at_r0_p2@0 .def_320))) (let ((.def_323 (and .def_32 .def_39))) (let ((.def_324 (ite .def_323 false true))) (let ((.def_325 (and .def_31 .def_39))) (let ((.def_326 (ite .def_325 false .def_324))) (let ((.def_327 (and .def_33 .def_38))) (let ((.def_328 (ite .def_327 false .def_326))) (let ((.def_329 (and .def_32 .def_38))) (let ((.def_330 (ite .def_329 true .def_328))) (let ((.def_331 (and .def_31 .def_38))) (let ((.def_332 (ite .def_331 false .def_330))) (let ((.def_333 (and .def_332 .def_310 .def_322 fluent_robot_has_r0_plt0@0 .def_318))) (let ((.def_334 (<= t@1 t@1))) (let ((.def_335 (< (- 1.0) t@1))) (let ((.def_336 (and .def_335 .def_334))) (let ((.def_337 (=> .def_336 .def_333))) (let ((.def_338 (<= dur_make_treatment@1 20.0))) (let ((.def_339 (<= 20.0 dur_make_treatment@1))) (let ((.def_340 (and .def_339 .def_338))) (let ((.def_341 (and .def_340 .def_314 .def_337 .def_317 .def_308 .def_293))) (let ((.def_342 (=> act_make_treatment@1 .def_341))) (let ((.def_343 (and .def_10 .def_13))) (let ((.def_344 (ite .def_343 fluent_pallet_at_plt0_p1@1 fluent_pallet_at_plt0_p0@1))) (let ((.def_345 (and .def_10 .def_12))) (let ((.def_346 (ite .def_345 fluent_pallet_at_plt0_p2@1 .def_344))) (let ((.def_347 (= .def_346 true))) (let ((.def_348 (=> true .def_347))) (let ((.def_349 (and .def_11 .def_13))) (let ((.def_350 (ite .def_349 fluent_robot_at_r0_p1@0 fluent_robot_at_r0_p0@0))) (let ((.def_351 (and .def_11 .def_12))) (let ((.def_352 (ite .def_351 fluent_robot_at_r0_p2@0 .def_350))) (let ((.def_353 (ite .def_13 false false))) (let ((.def_354 (ite .def_12 true .def_353))) (let ((.def_355 (and .def_354 .def_352 fluent_robot_has_r0_plt0@0 .def_348 .def_295 .def_303))) (let ((.def_356 (=> act_unload_at_depot@1 .def_355))) (let ((.def_357 (and .def_16 .def_24))) (let ((.def_358 (ite .def_357 fluent_pallet_at_plt0_p1@1 fluent_pallet_at_plt0_p0@1))) (let ((.def_359 (and .def_16 .def_23))) (let ((.def_360 (ite .def_359 fluent_pallet_at_plt0_p2@1 .def_358))) (let ((.def_361 (= .def_360 false))) (let ((.def_362 (=> true .def_361))) (let ((.def_363 (= fluent_robot_has_r0_plt0@1 true))) (let ((.def_364 (=> true .def_363))) (let ((.def_365 (= fluent_robot_free_r0@1 false))) (let ((.def_366 (=> true .def_365))) (let ((.def_367 (ite .def_357 fluent_pallet_at_plt0_p1@0 fluent_pallet_at_plt0_p0@0))) (let ((.def_368 (ite .def_359 fluent_pallet_at_plt0_p2@0 .def_367))) (let ((.def_369 (and .def_18 .def_24))) (let ((.def_370 (ite .def_369 fluent_robot_at_r0_p1@0 fluent_robot_at_r0_p0@0))) (let ((.def_371 (and .def_18 .def_23))) (let ((.def_372 (ite .def_371 fluent_robot_at_r0_p2@0 .def_370))) (let ((.def_373 (ite .def_24 false false))) (let ((.def_374 (ite .def_23 true .def_373))) (let ((.def_375 (and .def_374 .def_372 fluent_robot_free_r0@0 .def_368 .def_366 .def_364 .def_362))) (let ((.def_376 (=> act_load_at_depot@1 .def_375))) (let ((.def_377 (ite .def_2 fluent_position_free_p1@1 fluent_position_free_p0@1))) (let ((.def_378 (ite .def_1 fluent_position_free_p2@1 .def_377))) (let ((.def_379 (= .def_378 true))) (let ((.def_380 (=> true .def_379))) (let ((.def_381 (and .def_0 .def_5))) (let ((.def_382 (ite .def_381 fluent_treated_plt0_t1@1 fluent_treated_plt0_t0@1))) (let ((.def_383 (= .def_382 true))) (let ((.def_384 (=> true .def_383))) (let ((.def_385 (and .def_0 .def_2))) (let ((.def_386 (ite .def_385 fluent_pallet_at_plt0_p1@1 fluent_pallet_at_plt0_p0@1))) (let ((.def_387 (and .def_0 .def_1))) (let ((.def_388 (ite .def_387 fluent_pallet_at_plt0_p2@1 .def_386))) (let ((.def_389 (= .def_388 false))) (let ((.def_390 (=> true .def_389))) (let ((.def_391 (and .def_0 .def_2 .def_6))) (let ((.def_392 (ite .def_391 fluent_ready_plt0_p1_t0@1 fluent_ready_plt0_p0_t0@1))) (let ((.def_393 (and .def_0 .def_1 .def_6))) (let ((.def_394 (ite .def_393 fluent_ready_plt0_p2_t0@1 .def_392))) (let ((.def_395 (and .def_0 .def_3 .def_5))) (let ((.def_396 (ite .def_395 fluent_ready_plt0_p0_t1@1 .def_394))) (let ((.def_397 (and .def_0 .def_2 .def_5))) (let ((.def_398 (ite .def_397 fluent_ready_plt0_p1_t1@1 .def_396))) (let ((.def_399 (and .def_0 .def_1 .def_5))) (let ((.def_400 (ite .def_399 fluent_ready_plt0_p2_t1@1 .def_398))) (let ((.def_401 (= .def_400 false))) (let ((.def_402 (=> true .def_401))) (let ((.def_403 (ite .def_385 fluent_pallet_at_plt0_p1@0 fluent_pallet_at_plt0_p0@0))) (let ((.def_404 (ite .def_387 fluent_pallet_at_plt0_p2@0 .def_403))) (let ((.def_405 (and .def_35 .def_2))) (let ((.def_406 (ite .def_405 fluent_robot_at_r0_p1@0 fluent_robot_at_r0_p0@0))) (let ((.def_407 (and .def_35 .def_1))) (let ((.def_408 (ite .def_407 fluent_robot_at_r0_p2@0 .def_406))) (let ((.def_409 (ite .def_391 fluent_ready_plt0_p1_t0@0 fluent_ready_plt0_p0_t0@0))) (let ((.def_410 (ite .def_393 fluent_ready_plt0_p2_t0@0 .def_409))) (let ((.def_411 (ite .def_395 fluent_ready_plt0_p0_t1@0 .def_410))) (let ((.def_412 (ite .def_397 fluent_ready_plt0_p1_t1@0 .def_411))) (let ((.def_413 (ite .def_399 fluent_ready_plt0_p2_t1@0 .def_412))) (let ((.def_414 (and .def_413 .def_408 fluent_robot_free_r0@0 .def_404 .def_366 .def_402 .def_390 .def_364 .def_384 .def_380))) (let ((.def_415 (=> act_load@1 .def_414))) (let ((.def_416 (and .def_20 .def_29))) (let ((.def_417 (ite .def_416 1.0 0.0))) (let ((.def_418 (and .def_19 .def_29))) (let ((.def_419 (ite .def_418 2.0 .def_417))) (let ((.def_420 (and .def_21 .def_28))) (let ((.def_421 (ite .def_420 1.0 .def_419))) (let ((.def_422 (and .def_20 .def_28))) (let ((.def_423 (ite .def_422 0.0 .def_421))) (let ((.def_424 (and .def_19 .def_28))) (let ((.def_425 (ite .def_424 1.0 .def_423))) (let ((.def_426 (and .def_21 .def_27))) (let ((.def_427 (ite .def_426 2.0 .def_425))) (let ((.def_428 (and .def_20 .def_27))) (let ((.def_429 (ite .def_428 1.0 .def_427))) (let ((.def_430 (and .def_19 .def_27))) (let ((.def_431 (ite .def_430 0.0 .def_429))) (let ((.def_432 (- fluent_battery_level_r0@0 .def_431))) (let ((.def_433 (= fluent_battery_level_r0@1 .def_432))) (let ((.def_434 (=> true .def_433))) (let ((.def_435 (and .def_17 .def_20))) (let ((.def_436 (ite .def_435 fluent_robot_at_r0_p1@1 fluent_robot_at_r0_p0@1))) (let ((.def_437 (and .def_17 .def_19))) (let ((.def_438 (ite .def_437 fluent_robot_at_r0_p2@1 .def_436))) (let ((.def_439 (= .def_438 false))) (let ((.def_440 (=> true .def_439))) (let ((.def_441 (and .def_17 .def_28))) (let ((.def_442 (ite .def_441 fluent_robot_at_r0_p1@1 fluent_robot_at_r0_p0@1))) (let ((.def_443 (and .def_17 .def_27))) (let ((.def_444 (ite .def_443 fluent_robot_at_r0_p2@1 .def_442))) (let ((.def_445 (= .def_444 true))) (let ((.def_446 (=> true .def_445))) (let ((.def_447 (<= .def_431 fluent_battery_level_r0@0))) (let ((.def_448 (ite .def_435 fluent_robot_at_r0_p1@0 fluent_robot_at_r0_p0@0))) (let ((.def_449 (ite .def_437 fluent_robot_at_r0_p2@0 .def_448))) (let ((.def_450 (= parameter_move_frompos@1 parameter_move_topos@1))) (let ((.def_451 (not .def_450))) (let ((.def_452 (and .def_451 .def_449 .def_447 .def_446 .def_440 .def_434))) (let ((.def_453 (=> act_move@1 .def_452))) (let ((.def_454 (<= fluent_battery_level_r0@0 100.0))) (let ((.def_455 (<= 0.0 fluent_battery_level_r0@0))) (let ((.def_456 (= false false))) (let ((.def_457 (= fluent_pallet_at_plt0_p1@0 false))) (let ((.def_458 (= fluent_pallet_at_plt0_p0@0 false))) (let ((.def_459 (= fluent_treated_plt0_t1@0 false))) (let ((.def_460 (= fluent_treated_plt0_t0@0 false))) (let ((.def_461 (= fluent_ready_plt0_p2_t1@0 false))) (let ((.def_462 (= fluent_ready_plt0_p1_t1@0 false))) (let ((.def_463 (= fluent_ready_plt0_p0_t1@0 false))) (let ((.def_464 (= fluent_ready_plt0_p2_t0@0 false))) (let ((.def_465 (= fluent_ready_plt0_p1_t0@0 false))) (let ((.def_466 (= fluent_ready_plt0_p0_t0@0 false))) (let ((.def_467 (= fluent_robot_has_r0_plt0@0 false))) (let ((.def_468 (= fluent_robot_at_r0_p1@0 false))) (let ((.def_469 (= fluent_robot_at_r0_p0@0 false))) (let ((.def_470 (= true true))) (let ((.def_471 (= fluent_position_free_p2@0 true))) (let ((.def_472 (= fluent_position_free_p1@0 true))) (let ((.def_473 (= fluent_position_free_p0@0 true))) (let ((.def_474 (= 0.0 0.0))) (let ((.def_475 (= 1.0 1.0))) (let ((.def_476 (= 2.0 2.0))) (let ((.def_477 (= fluent_battery_level_r0@0 6.0))) (let ((.def_478 (= fluent_pallet_at_plt0_p2@0 true))) (let ((.def_479 (= fluent_robot_free_r0@0 true))) (let ((.def_480 (= fluent_robot_at_r0_p2@0 true))) (let ((.def_481 (and .def_480 .def_479 .def_478 .def_477 .def_474 .def_475 .def_475 .def_476 .def_476 .def_474 .def_475 .def_475 .def_474 .def_470 .def_473 .def_472 .def_471 .def_470 .def_470 .def_469 .def_468 .def_467 .def_466 .def_465 .def_464 .def_463 .def_462 .def_461 .def_460 .def_459 .def_458 .def_457 .def_456 .def_456 .def_456 .def_456 .def_456 .def_456 .def_455 .def_454))) (let ((.def_482 (and .def_481 .def_453 .def_415 .def_376 .def_356 .def_342 .def_280 .def_279 true .def_251 .def_40 .def_37 .def_36 .def_35 .def_34 .def_30 .def_26 .def_22 .def_18 .def_17 .def_16 .def_15 .def_11 .def_10 .def_9 .def_8 .def_7 .def_4 .def_0 true))) .def_482))))))))))))))))))))))))))))))))))))))))))))))))))))))))))))))))))))))))))))))))))))))))))))))))))))))))))))))))))))))))))))))))))))))))))))))))))))))))))))))))))))))))))))))))))))))))))))))))))))))))))))))))))))))))))))))))))))))))))))))))))))))))))))))))))))))))))))))))))))))))))))))))))))))))))))))))))))))))))))))))))))))))))))))))))))))))))))))))))))))))))))))))))))))))))))))))))))))))))))))))))))))))))))))))))))))))))))))))))))))))))))))))))))))))))))))))))))))))))))))))))))
(check-sat)

--------------------------------------------------------------------------------
